NAME : in_house_7_13
TYPE : TSP
DIMENSION : 7
EDGE_WEIGHT_TYPE : EXPLICIT
EDGE_WEIGHT_FORMAT : UPPER_ROW
COMMENT : INVERSION_SHIFT=3
EDGE_WEIGHT_SECTION
36
3
38
42
18
9
1
18
17
36
33
34
19
13
30
8
45
45
47
43
40
